Shadow_BDPT/Simon_16_16.lp
Minimize
Subject To
x_0_0 - u_0_0 - v_0_0 - w_0_0 - y_1_0 = 0
x_0_1 - u_0_1 - v_0_1 - w_0_1 - y_1_1 = 0
x_0_2 - u_0_2 - v_0_2 - w_0_2 - y_1_2 = 0
x_0_3 - u_0_3 - v_0_3 - w_0_3 - y_1_3 = 0
x_0_4 - u_0_4 - v_0_4 - w_0_4 - y_1_4 = 0
x_0_5 - u_0_5 - v_0_5 - w_0_5 - y_1_5 = 0
x_0_6 - u_0_6 - v_0_6 - w_0_6 - y_1_6 = 0
x_0_7 - u_0_7 - v_0_7 - w_0_7 - y_1_7 = 0
t_0_0 - u_0_1 >= 0
t_0_0 - v_0_0 >= 0
t_0_0 - u_0_1 - v_0_0 <= 0
t_0_1 - u_0_2 >= 0
t_0_1 - v_0_1 >= 0
t_0_1 - u_0_2 - v_0_1 <= 0
t_0_2 - u_0_3 >= 0
t_0_2 - v_0_2 >= 0
t_0_2 - u_0_3 - v_0_2 <= 0
t_0_3 - u_0_4 >= 0
t_0_3 - v_0_3 >= 0
t_0_3 - u_0_4 - v_0_3 <= 0
t_0_4 - u_0_5 >= 0
t_0_4 - v_0_4 >= 0
t_0_4 - u_0_5 - v_0_4 <= 0
t_0_5 - u_0_6 >= 0
t_0_5 - v_0_5 >= 0
t_0_5 - u_0_6 - v_0_5 <= 0
t_0_6 - u_0_7 >= 0
t_0_6 - v_0_6 >= 0
t_0_6 - u_0_7 - v_0_6 <= 0
t_0_7 - u_0_0 >= 0
t_0_7 - v_0_7 >= 0
t_0_7 - u_0_0 - v_0_7 <= 0
x_1_0 - y_0_0 - t_0_0 - w_0_2 = 0
x_1_1 - y_0_1 - t_0_1 - w_0_3 = 0
x_1_2 - y_0_2 - t_0_2 - w_0_4 = 0
x_1_3 - y_0_3 - t_0_3 - w_0_5 = 0
x_1_4 - y_0_4 - t_0_4 - w_0_6 = 0
x_1_5 - y_0_5 - t_0_5 - w_0_7 = 0
x_1_6 - y_0_6 - t_0_6 - w_0_0 = 0
x_1_7 - y_0_7 - t_0_7 - w_0_1 = 0
x_1_0 - u_1_0 - v_1_0 - w_1_0 - y_2_0 = 0
x_1_1 - u_1_1 - v_1_1 - w_1_1 - y_2_1 = 0
x_1_2 - u_1_2 - v_1_2 - w_1_2 - y_2_2 = 0
x_1_3 - u_1_3 - v_1_3 - w_1_3 - y_2_3 = 0
x_1_4 - u_1_4 - v_1_4 - w_1_4 - y_2_4 = 0
x_1_5 - u_1_5 - v_1_5 - w_1_5 - y_2_5 = 0
x_1_6 - u_1_6 - v_1_6 - w_1_6 - y_2_6 = 0
x_1_7 - u_1_7 - v_1_7 - w_1_7 - y_2_7 = 0
t_1_0 - u_1_1 >= 0
t_1_0 - v_1_0 >= 0
t_1_0 - u_1_1 - v_1_0 <= 0
t_1_1 - u_1_2 >= 0
t_1_1 - v_1_1 >= 0
t_1_1 - u_1_2 - v_1_1 <= 0
t_1_2 - u_1_3 >= 0
t_1_2 - v_1_2 >= 0
t_1_2 - u_1_3 - v_1_2 <= 0
t_1_3 - u_1_4 >= 0
t_1_3 - v_1_3 >= 0
t_1_3 - u_1_4 - v_1_3 <= 0
t_1_4 - u_1_5 >= 0
t_1_4 - v_1_4 >= 0
t_1_4 - u_1_5 - v_1_4 <= 0
t_1_5 - u_1_6 >= 0
t_1_5 - v_1_5 >= 0
t_1_5 - u_1_6 - v_1_5 <= 0
t_1_6 - u_1_7 >= 0
t_1_6 - v_1_6 >= 0
t_1_6 - u_1_7 - v_1_6 <= 0
t_1_7 - u_1_0 >= 0
t_1_7 - v_1_7 >= 0
t_1_7 - u_1_0 - v_1_7 <= 0
x_2_0 - y_1_0 - t_1_0 - w_1_2 = 0
x_2_1 - y_1_1 - t_1_1 - w_1_3 = 0
x_2_2 - y_1_2 - t_1_2 - w_1_4 = 0
x_2_3 - y_1_3 - t_1_3 - w_1_5 = 0
x_2_4 - y_1_4 - t_1_4 - w_1_6 = 0
x_2_5 - y_1_5 - t_1_5 - w_1_7 = 0
x_2_6 - y_1_6 - t_1_6 - w_1_0 = 0
x_2_7 - y_1_7 - t_1_7 - w_1_1 = 0
x_2_0 - u_2_0 - v_2_0 - w_2_0 - y_3_0 = 0
x_2_1 - u_2_1 - v_2_1 - w_2_1 - y_3_1 = 0
x_2_2 - u_2_2 - v_2_2 - w_2_2 - y_3_2 = 0
x_2_3 - u_2_3 - v_2_3 - w_2_3 - y_3_3 = 0
x_2_4 - u_2_4 - v_2_4 - w_2_4 - y_3_4 = 0
x_2_5 - u_2_5 - v_2_5 - w_2_5 - y_3_5 = 0
x_2_6 - u_2_6 - v_2_6 - w_2_6 - y_3_6 = 0
x_2_7 - u_2_7 - v_2_7 - w_2_7 - y_3_7 = 0
t_2_0 - u_2_1 >= 0
t_2_0 - v_2_0 >= 0
t_2_0 - u_2_1 - v_2_0 <= 0
t_2_1 - u_2_2 >= 0
t_2_1 - v_2_1 >= 0
t_2_1 - u_2_2 - v_2_1 <= 0
t_2_2 - u_2_3 >= 0
t_2_2 - v_2_2 >= 0
t_2_2 - u_2_3 - v_2_2 <= 0
t_2_3 - u_2_4 >= 0
t_2_3 - v_2_3 >= 0
t_2_3 - u_2_4 - v_2_3 <= 0
t_2_4 - u_2_5 >= 0
t_2_4 - v_2_4 >= 0
t_2_4 - u_2_5 - v_2_4 <= 0
t_2_5 - u_2_6 >= 0
t_2_5 - v_2_5 >= 0
t_2_5 - u_2_6 - v_2_5 <= 0
t_2_6 - u_2_7 >= 0
t_2_6 - v_2_6 >= 0
t_2_6 - u_2_7 - v_2_6 <= 0
t_2_7 - u_2_0 >= 0
t_2_7 - v_2_7 >= 0
t_2_7 - u_2_0 - v_2_7 <= 0
x_3_0 - y_2_0 - t_2_0 - w_2_2 = 0
x_3_1 - y_2_1 - t_2_1 - w_2_3 = 0
x_3_2 - y_2_2 - t_2_2 - w_2_4 = 0
x_3_3 - y_2_3 - t_2_3 - w_2_5 = 0
x_3_4 - y_2_4 - t_2_4 - w_2_6 = 0
x_3_5 - y_2_5 - t_2_5 - w_2_7 = 0
x_3_6 - y_2_6 - t_2_6 - w_2_0 = 0
x_3_7 - y_2_7 - t_2_7 - w_2_1 = 0
x_3_0 - u_3_0 - v_3_0 - w_3_0 - y_4_0 = 0
x_3_1 - u_3_1 - v_3_1 - w_3_1 - y_4_1 = 0
x_3_2 - u_3_2 - v_3_2 - w_3_2 - y_4_2 = 0
x_3_3 - u_3_3 - v_3_3 - w_3_3 - y_4_3 = 0
x_3_4 - u_3_4 - v_3_4 - w_3_4 - y_4_4 = 0
x_3_5 - u_3_5 - v_3_5 - w_3_5 - y_4_5 = 0
x_3_6 - u_3_6 - v_3_6 - w_3_6 - y_4_6 = 0
x_3_7 - u_3_7 - v_3_7 - w_3_7 - y_4_7 = 0
t_3_0 - u_3_1 >= 0
t_3_0 - v_3_0 >= 0
t_3_0 - u_3_1 - v_3_0 <= 0
t_3_1 - u_3_2 >= 0
t_3_1 - v_3_1 >= 0
t_3_1 - u_3_2 - v_3_1 <= 0
t_3_2 - u_3_3 >= 0
t_3_2 - v_3_2 >= 0
t_3_2 - u_3_3 - v_3_2 <= 0
t_3_3 - u_3_4 >= 0
t_3_3 - v_3_3 >= 0
t_3_3 - u_3_4 - v_3_3 <= 0
t_3_4 - u_3_5 >= 0
t_3_4 - v_3_4 >= 0
t_3_4 - u_3_5 - v_3_4 <= 0
t_3_5 - u_3_6 >= 0
t_3_5 - v_3_5 >= 0
t_3_5 - u_3_6 - v_3_5 <= 0
t_3_6 - u_3_7 >= 0
t_3_6 - v_3_6 >= 0
t_3_6 - u_3_7 - v_3_6 <= 0
t_3_7 - u_3_0 >= 0
t_3_7 - v_3_7 >= 0
t_3_7 - u_3_0 - v_3_7 <= 0
x_4_0 - y_3_0 - t_3_0 - w_3_2 = 0
x_4_1 - y_3_1 - t_3_1 - w_3_3 = 0
x_4_2 - y_3_2 - t_3_2 - w_3_4 = 0
x_4_3 - y_3_3 - t_3_3 - w_3_5 = 0
x_4_4 - y_3_4 - t_3_4 - w_3_6 = 0
x_4_5 - y_3_5 - t_3_5 - w_3_7 = 0
x_4_6 - y_3_6 - t_3_6 - w_3_0 = 0
x_4_7 - y_3_7 - t_3_7 - w_3_1 = 0
x_4_0 - u_4_0 - v_4_0 - w_4_0 - y_5_0 = 0
x_4_1 - u_4_1 - v_4_1 - w_4_1 - y_5_1 = 0
x_4_2 - u_4_2 - v_4_2 - w_4_2 - y_5_2 = 0
x_4_3 - u_4_3 - v_4_3 - w_4_3 - y_5_3 = 0
x_4_4 - u_4_4 - v_4_4 - w_4_4 - y_5_4 = 0
x_4_5 - u_4_5 - v_4_5 - w_4_5 - y_5_5 = 0
x_4_6 - u_4_6 - v_4_6 - w_4_6 - y_5_6 = 0
x_4_7 - u_4_7 - v_4_7 - w_4_7 - y_5_7 = 0
t_4_0 - u_4_1 >= 0
t_4_0 - v_4_0 >= 0
t_4_0 - u_4_1 - v_4_0 <= 0
t_4_1 - u_4_2 >= 0
t_4_1 - v_4_1 >= 0
t_4_1 - u_4_2 - v_4_1 <= 0
t_4_2 - u_4_3 >= 0
t_4_2 - v_4_2 >= 0
t_4_2 - u_4_3 - v_4_2 <= 0
t_4_3 - u_4_4 >= 0
t_4_3 - v_4_3 >= 0
t_4_3 - u_4_4 - v_4_3 <= 0
t_4_4 - u_4_5 >= 0
t_4_4 - v_4_4 >= 0
t_4_4 - u_4_5 - v_4_4 <= 0
t_4_5 - u_4_6 >= 0
t_4_5 - v_4_5 >= 0
t_4_5 - u_4_6 - v_4_5 <= 0
t_4_6 - u_4_7 >= 0
t_4_6 - v_4_6 >= 0
t_4_6 - u_4_7 - v_4_6 <= 0
t_4_7 - u_4_0 >= 0
t_4_7 - v_4_7 >= 0
t_4_7 - u_4_0 - v_4_7 <= 0
x_5_0 - y_4_0 - t_4_0 - w_4_2 = 0
x_5_1 - y_4_1 - t_4_1 - w_4_3 = 0
x_5_2 - y_4_2 - t_4_2 - w_4_4 = 0
x_5_3 - y_4_3 - t_4_3 - w_4_5 = 0
x_5_4 - y_4_4 - t_4_4 - w_4_6 = 0
x_5_5 - y_4_5 - t_4_5 - w_4_7 = 0
x_5_6 - y_4_6 - t_4_6 - w_4_0 = 0
x_5_7 - y_4_7 - t_4_7 - w_4_1 = 0
x_5_0 - u_5_0 - v_5_0 - w_5_0 - y_6_0 = 0
x_5_1 - u_5_1 - v_5_1 - w_5_1 - y_6_1 = 0
x_5_2 - u_5_2 - v_5_2 - w_5_2 - y_6_2 = 0
x_5_3 - u_5_3 - v_5_3 - w_5_3 - y_6_3 = 0
x_5_4 - u_5_4 - v_5_4 - w_5_4 - y_6_4 = 0
x_5_5 - u_5_5 - v_5_5 - w_5_5 - y_6_5 = 0
x_5_6 - u_5_6 - v_5_6 - w_5_6 - y_6_6 = 0
x_5_7 - u_5_7 - v_5_7 - w_5_7 - y_6_7 = 0
t_5_0 - u_5_1 >= 0
t_5_0 - v_5_0 >= 0
t_5_0 - u_5_1 - v_5_0 <= 0
t_5_1 - u_5_2 >= 0
t_5_1 - v_5_1 >= 0
t_5_1 - u_5_2 - v_5_1 <= 0
t_5_2 - u_5_3 >= 0
t_5_2 - v_5_2 >= 0
t_5_2 - u_5_3 - v_5_2 <= 0
t_5_3 - u_5_4 >= 0
t_5_3 - v_5_3 >= 0
t_5_3 - u_5_4 - v_5_3 <= 0
t_5_4 - u_5_5 >= 0
t_5_4 - v_5_4 >= 0
t_5_4 - u_5_5 - v_5_4 <= 0
t_5_5 - u_5_6 >= 0
t_5_5 - v_5_5 >= 0
t_5_5 - u_5_6 - v_5_5 <= 0
t_5_6 - u_5_7 >= 0
t_5_6 - v_5_6 >= 0
t_5_6 - u_5_7 - v_5_6 <= 0
t_5_7 - u_5_0 >= 0
t_5_7 - v_5_7 >= 0
t_5_7 - u_5_0 - v_5_7 <= 0
x_6_0 - y_5_0 - t_5_0 - w_5_2 = 0
x_6_1 - y_5_1 - t_5_1 - w_5_3 = 0
x_6_2 - y_5_2 - t_5_2 - w_5_4 = 0
x_6_3 - y_5_3 - t_5_3 - w_5_5 = 0
x_6_4 - y_5_4 - t_5_4 - w_5_6 = 0
x_6_5 - y_5_5 - t_5_5 - w_5_7 = 0
x_6_6 - y_5_6 - t_5_6 - w_5_0 = 0
x_6_7 - y_5_7 - t_5_7 - w_5_1 = 0
x_6_0 - u_6_0 - v_6_0 - w_6_0 - y_7_0 = 0
x_6_1 - u_6_1 - v_6_1 - w_6_1 - y_7_1 = 0
x_6_2 - u_6_2 - v_6_2 - w_6_2 - y_7_2 = 0
x_6_3 - u_6_3 - v_6_3 - w_6_3 - y_7_3 = 0
x_6_4 - u_6_4 - v_6_4 - w_6_4 - y_7_4 = 0
x_6_5 - u_6_5 - v_6_5 - w_6_5 - y_7_5 = 0
x_6_6 - u_6_6 - v_6_6 - w_6_6 - y_7_6 = 0
x_6_7 - u_6_7 - v_6_7 - w_6_7 - y_7_7 = 0
t_6_0 - u_6_1 >= 0
t_6_0 - v_6_0 >= 0
t_6_0 - u_6_1 - v_6_0 <= 0
t_6_1 - u_6_2 >= 0
t_6_1 - v_6_1 >= 0
t_6_1 - u_6_2 - v_6_1 <= 0
t_6_2 - u_6_3 >= 0
t_6_2 - v_6_2 >= 0
t_6_2 - u_6_3 - v_6_2 <= 0
t_6_3 - u_6_4 >= 0
t_6_3 - v_6_3 >= 0
t_6_3 - u_6_4 - v_6_3 <= 0
t_6_4 - u_6_5 >= 0
t_6_4 - v_6_4 >= 0
t_6_4 - u_6_5 - v_6_4 <= 0
t_6_5 - u_6_6 >= 0
t_6_5 - v_6_5 >= 0
t_6_5 - u_6_6 - v_6_5 <= 0
t_6_6 - u_6_7 >= 0
t_6_6 - v_6_6 >= 0
t_6_6 - u_6_7 - v_6_6 <= 0
t_6_7 - u_6_0 >= 0
t_6_7 - v_6_7 >= 0
t_6_7 - u_6_0 - v_6_7 <= 0
x_7_0 - y_6_0 - t_6_0 - w_6_2 = 0
x_7_1 - y_6_1 - t_6_1 - w_6_3 = 0
x_7_2 - y_6_2 - t_6_2 - w_6_4 = 0
x_7_3 - y_6_3 - t_6_3 - w_6_5 = 0
x_7_4 - y_6_4 - t_6_4 - w_6_6 = 0
x_7_5 - y_6_5 - t_6_5 - w_6_7 = 0
x_7_6 - y_6_6 - t_6_6 - w_6_0 = 0
x_7_7 - y_6_7 - t_6_7 - w_6_1 = 0
x_7_0 - u_7_0 - v_7_0 - w_7_0 - y_8_0 = 0
x_7_1 - u_7_1 - v_7_1 - w_7_1 - y_8_1 = 0
x_7_2 - u_7_2 - v_7_2 - w_7_2 - y_8_2 = 0
x_7_3 - u_7_3 - v_7_3 - w_7_3 - y_8_3 = 0
x_7_4 - u_7_4 - v_7_4 - w_7_4 - y_8_4 = 0
x_7_5 - u_7_5 - v_7_5 - w_7_5 - y_8_5 = 0
x_7_6 - u_7_6 - v_7_6 - w_7_6 - y_8_6 = 0
x_7_7 - u_7_7 - v_7_7 - w_7_7 - y_8_7 = 0
t_7_0 - u_7_1 >= 0
t_7_0 - v_7_0 >= 0
t_7_0 - u_7_1 - v_7_0 <= 0
t_7_1 - u_7_2 >= 0
t_7_1 - v_7_1 >= 0
t_7_1 - u_7_2 - v_7_1 <= 0
t_7_2 - u_7_3 >= 0
t_7_2 - v_7_2 >= 0
t_7_2 - u_7_3 - v_7_2 <= 0
t_7_3 - u_7_4 >= 0
t_7_3 - v_7_3 >= 0
t_7_3 - u_7_4 - v_7_3 <= 0
t_7_4 - u_7_5 >= 0
t_7_4 - v_7_4 >= 0
t_7_4 - u_7_5 - v_7_4 <= 0
t_7_5 - u_7_6 >= 0
t_7_5 - v_7_5 >= 0
t_7_5 - u_7_6 - v_7_5 <= 0
t_7_6 - u_7_7 >= 0
t_7_6 - v_7_6 >= 0
t_7_6 - u_7_7 - v_7_6 <= 0
t_7_7 - u_7_0 >= 0
t_7_7 - v_7_7 >= 0
t_7_7 - u_7_0 - v_7_7 <= 0
x_8_0 - y_7_0 - t_7_0 - w_7_2 = 0
x_8_1 - y_7_1 - t_7_1 - w_7_3 = 0
x_8_2 - y_7_2 - t_7_2 - w_7_4 = 0
x_8_3 - y_7_3 - t_7_3 - w_7_5 = 0
x_8_4 - y_7_4 - t_7_4 - w_7_6 = 0
x_8_5 - y_7_5 - t_7_5 - w_7_7 = 0
x_8_6 - y_7_6 - t_7_6 - w_7_0 = 0
x_8_7 - y_7_7 - t_7_7 - w_7_1 = 0
x_8_0 - u_8_0 - v_8_0 - w_8_0 - y_9_0 = 0
x_8_1 - u_8_1 - v_8_1 - w_8_1 - y_9_1 = 0
x_8_2 - u_8_2 - v_8_2 - w_8_2 - y_9_2 = 0
x_8_3 - u_8_3 - v_8_3 - w_8_3 - y_9_3 = 0
x_8_4 - u_8_4 - v_8_4 - w_8_4 - y_9_4 = 0
x_8_5 - u_8_5 - v_8_5 - w_8_5 - y_9_5 = 0
x_8_6 - u_8_6 - v_8_6 - w_8_6 - y_9_6 = 0
x_8_7 - u_8_7 - v_8_7 - w_8_7 - y_9_7 = 0
t_8_0 - u_8_1 >= 0
t_8_0 - v_8_0 >= 0
t_8_0 - u_8_1 - v_8_0 <= 0
t_8_1 - u_8_2 >= 0
t_8_1 - v_8_1 >= 0
t_8_1 - u_8_2 - v_8_1 <= 0
t_8_2 - u_8_3 >= 0
t_8_2 - v_8_2 >= 0
t_8_2 - u_8_3 - v_8_2 <= 0
t_8_3 - u_8_4 >= 0
t_8_3 - v_8_3 >= 0
t_8_3 - u_8_4 - v_8_3 <= 0
t_8_4 - u_8_5 >= 0
t_8_4 - v_8_4 >= 0
t_8_4 - u_8_5 - v_8_4 <= 0
t_8_5 - u_8_6 >= 0
t_8_5 - v_8_5 >= 0
t_8_5 - u_8_6 - v_8_5 <= 0
t_8_6 - u_8_7 >= 0
t_8_6 - v_8_6 >= 0
t_8_6 - u_8_7 - v_8_6 <= 0
t_8_7 - u_8_0 >= 0
t_8_7 - v_8_7 >= 0
t_8_7 - u_8_0 - v_8_7 <= 0
x_9_0 - y_8_0 - t_8_0 - w_8_2 = 0
x_9_1 - y_8_1 - t_8_1 - w_8_3 = 0
x_9_2 - y_8_2 - t_8_2 - w_8_4 = 0
x_9_3 - y_8_3 - t_8_3 - w_8_5 = 0
x_9_4 - y_8_4 - t_8_4 - w_8_6 = 0
x_9_5 - y_8_5 - t_8_5 - w_8_7 = 0
x_9_6 - y_8_6 - t_8_6 - w_8_0 = 0
x_9_7 - y_8_7 - t_8_7 - w_8_1 = 0
x_9_0 - u_9_0 - v_9_0 - w_9_0 - y_10_0 = 0
x_9_1 - u_9_1 - v_9_1 - w_9_1 - y_10_1 = 0
x_9_2 - u_9_2 - v_9_2 - w_9_2 - y_10_2 = 0
x_9_3 - u_9_3 - v_9_3 - w_9_3 - y_10_3 = 0
x_9_4 - u_9_4 - v_9_4 - w_9_4 - y_10_4 = 0
x_9_5 - u_9_5 - v_9_5 - w_9_5 - y_10_5 = 0
x_9_6 - u_9_6 - v_9_6 - w_9_6 - y_10_6 = 0
x_9_7 - u_9_7 - v_9_7 - w_9_7 - y_10_7 = 0
t_9_0 - u_9_1 >= 0
t_9_0 - v_9_0 >= 0
t_9_0 - u_9_1 - v_9_0 <= 0
t_9_1 - u_9_2 >= 0
t_9_1 - v_9_1 >= 0
t_9_1 - u_9_2 - v_9_1 <= 0
t_9_2 - u_9_3 >= 0
t_9_2 - v_9_2 >= 0
t_9_2 - u_9_3 - v_9_2 <= 0
t_9_3 - u_9_4 >= 0
t_9_3 - v_9_3 >= 0
t_9_3 - u_9_4 - v_9_3 <= 0
t_9_4 - u_9_5 >= 0
t_9_4 - v_9_4 >= 0
t_9_4 - u_9_5 - v_9_4 <= 0
t_9_5 - u_9_6 >= 0
t_9_5 - v_9_5 >= 0
t_9_5 - u_9_6 - v_9_5 <= 0
t_9_6 - u_9_7 >= 0
t_9_6 - v_9_6 >= 0
t_9_6 - u_9_7 - v_9_6 <= 0
t_9_7 - u_9_0 >= 0
t_9_7 - v_9_7 >= 0
t_9_7 - u_9_0 - v_9_7 <= 0
x_10_0 - y_9_0 - t_9_0 - w_9_2 = 0
x_10_1 - y_9_1 - t_9_1 - w_9_3 = 0
x_10_2 - y_9_2 - t_9_2 - w_9_4 = 0
x_10_3 - y_9_3 - t_9_3 - w_9_5 = 0
x_10_4 - y_9_4 - t_9_4 - w_9_6 = 0
x_10_5 - y_9_5 - t_9_5 - w_9_7 = 0
x_10_6 - y_9_6 - t_9_6 - w_9_0 = 0
x_10_7 - y_9_7 - t_9_7 - w_9_1 = 0
x_10_0 - u_10_0 - v_10_0 - w_10_0 - y_11_0 = 0
x_10_1 - u_10_1 - v_10_1 - w_10_1 - y_11_1 = 0
x_10_2 - u_10_2 - v_10_2 - w_10_2 - y_11_2 = 0
x_10_3 - u_10_3 - v_10_3 - w_10_3 - y_11_3 = 0
x_10_4 - u_10_4 - v_10_4 - w_10_4 - y_11_4 = 0
x_10_5 - u_10_5 - v_10_5 - w_10_5 - y_11_5 = 0
x_10_6 - u_10_6 - v_10_6 - w_10_6 - y_11_6 = 0
x_10_7 - u_10_7 - v_10_7 - w_10_7 - y_11_7 = 0
t_10_0 - u_10_1 >= 0
t_10_0 - v_10_0 >= 0
t_10_0 - u_10_1 - v_10_0 <= 0
t_10_1 - u_10_2 >= 0
t_10_1 - v_10_1 >= 0
t_10_1 - u_10_2 - v_10_1 <= 0
t_10_2 - u_10_3 >= 0
t_10_2 - v_10_2 >= 0
t_10_2 - u_10_3 - v_10_2 <= 0
t_10_3 - u_10_4 >= 0
t_10_3 - v_10_3 >= 0
t_10_3 - u_10_4 - v_10_3 <= 0
t_10_4 - u_10_5 >= 0
t_10_4 - v_10_4 >= 0
t_10_4 - u_10_5 - v_10_4 <= 0
t_10_5 - u_10_6 >= 0
t_10_5 - v_10_5 >= 0
t_10_5 - u_10_6 - v_10_5 <= 0
t_10_6 - u_10_7 >= 0
t_10_6 - v_10_6 >= 0
t_10_6 - u_10_7 - v_10_6 <= 0
t_10_7 - u_10_0 >= 0
t_10_7 - v_10_7 >= 0
t_10_7 - u_10_0 - v_10_7 <= 0
x_11_0 - y_10_0 - t_10_0 - w_10_2 = 0
x_11_1 - y_10_1 - t_10_1 - w_10_3 = 0
x_11_2 - y_10_2 - t_10_2 - w_10_4 = 0
x_11_3 - y_10_3 - t_10_3 - w_10_5 = 0
x_11_4 - y_10_4 - t_10_4 - w_10_6 = 0
x_11_5 - y_10_5 - t_10_5 - w_10_7 = 0
x_11_6 - y_10_6 - t_10_6 - w_10_0 = 0
x_11_7 - y_10_7 - t_10_7 - w_10_1 = 0
x_11_0 - u_11_0 - v_11_0 - w_11_0 - y_12_0 = 0
x_11_1 - u_11_1 - v_11_1 - w_11_1 - y_12_1 = 0
x_11_2 - u_11_2 - v_11_2 - w_11_2 - y_12_2 = 0
x_11_3 - u_11_3 - v_11_3 - w_11_3 - y_12_3 = 0
x_11_4 - u_11_4 - v_11_4 - w_11_4 - y_12_4 = 0
x_11_5 - u_11_5 - v_11_5 - w_11_5 - y_12_5 = 0
x_11_6 - u_11_6 - v_11_6 - w_11_6 - y_12_6 = 0
x_11_7 - u_11_7 - v_11_7 - w_11_7 - y_12_7 = 0
t_11_0 - u_11_1 >= 0
t_11_0 - v_11_0 >= 0
t_11_0 - u_11_1 - v_11_0 <= 0
t_11_1 - u_11_2 >= 0
t_11_1 - v_11_1 >= 0
t_11_1 - u_11_2 - v_11_1 <= 0
t_11_2 - u_11_3 >= 0
t_11_2 - v_11_2 >= 0
t_11_2 - u_11_3 - v_11_2 <= 0
t_11_3 - u_11_4 >= 0
t_11_3 - v_11_3 >= 0
t_11_3 - u_11_4 - v_11_3 <= 0
t_11_4 - u_11_5 >= 0
t_11_4 - v_11_4 >= 0
t_11_4 - u_11_5 - v_11_4 <= 0
t_11_5 - u_11_6 >= 0
t_11_5 - v_11_5 >= 0
t_11_5 - u_11_6 - v_11_5 <= 0
t_11_6 - u_11_7 >= 0
t_11_6 - v_11_6 >= 0
t_11_6 - u_11_7 - v_11_6 <= 0
t_11_7 - u_11_0 >= 0
t_11_7 - v_11_7 >= 0
t_11_7 - u_11_0 - v_11_7 <= 0
x_12_0 - y_11_0 - t_11_0 - w_11_2 = 0
x_12_1 - y_11_1 - t_11_1 - w_11_3 = 0
x_12_2 - y_11_2 - t_11_2 - w_11_4 = 0
x_12_3 - y_11_3 - t_11_3 - w_11_5 = 0
x_12_4 - y_11_4 - t_11_4 - w_11_6 = 0
x_12_5 - y_11_5 - t_11_5 - w_11_7 = 0
x_12_6 - y_11_6 - t_11_6 - w_11_0 = 0
x_12_7 - y_11_7 - t_11_7 - w_11_1 = 0
x_12_0 - u_12_0 - v_12_0 - w_12_0 - y_13_0 = 0
x_12_1 - u_12_1 - v_12_1 - w_12_1 - y_13_1 = 0
x_12_2 - u_12_2 - v_12_2 - w_12_2 - y_13_2 = 0
x_12_3 - u_12_3 - v_12_3 - w_12_3 - y_13_3 = 0
x_12_4 - u_12_4 - v_12_4 - w_12_4 - y_13_4 = 0
x_12_5 - u_12_5 - v_12_5 - w_12_5 - y_13_5 = 0
x_12_6 - u_12_6 - v_12_6 - w_12_6 - y_13_6 = 0
x_12_7 - u_12_7 - v_12_7 - w_12_7 - y_13_7 = 0
t_12_0 - u_12_1 >= 0
t_12_0 - v_12_0 >= 0
t_12_0 - u_12_1 - v_12_0 <= 0
t_12_1 - u_12_2 >= 0
t_12_1 - v_12_1 >= 0
t_12_1 - u_12_2 - v_12_1 <= 0
t_12_2 - u_12_3 >= 0
t_12_2 - v_12_2 >= 0
t_12_2 - u_12_3 - v_12_2 <= 0
t_12_3 - u_12_4 >= 0
t_12_3 - v_12_3 >= 0
t_12_3 - u_12_4 - v_12_3 <= 0
t_12_4 - u_12_5 >= 0
t_12_4 - v_12_4 >= 0
t_12_4 - u_12_5 - v_12_4 <= 0
t_12_5 - u_12_6 >= 0
t_12_5 - v_12_5 >= 0
t_12_5 - u_12_6 - v_12_5 <= 0
t_12_6 - u_12_7 >= 0
t_12_6 - v_12_6 >= 0
t_12_6 - u_12_7 - v_12_6 <= 0
t_12_7 - u_12_0 >= 0
t_12_7 - v_12_7 >= 0
t_12_7 - u_12_0 - v_12_7 <= 0
x_13_0 - y_12_0 - t_12_0 - w_12_2 = 0
x_13_1 - y_12_1 - t_12_1 - w_12_3 = 0
x_13_2 - y_12_2 - t_12_2 - w_12_4 = 0
x_13_3 - y_12_3 - t_12_3 - w_12_5 = 0
x_13_4 - y_12_4 - t_12_4 - w_12_6 = 0
x_13_5 - y_12_5 - t_12_5 - w_12_7 = 0
x_13_6 - y_12_6 - t_12_6 - w_12_0 = 0
x_13_7 - y_12_7 - t_12_7 - w_12_1 = 0
x_13_0 - u_13_0 - v_13_0 - w_13_0 - y_14_0 = 0
x_13_1 - u_13_1 - v_13_1 - w_13_1 - y_14_1 = 0
x_13_2 - u_13_2 - v_13_2 - w_13_2 - y_14_2 = 0
x_13_3 - u_13_3 - v_13_3 - w_13_3 - y_14_3 = 0
x_13_4 - u_13_4 - v_13_4 - w_13_4 - y_14_4 = 0
x_13_5 - u_13_5 - v_13_5 - w_13_5 - y_14_5 = 0
x_13_6 - u_13_6 - v_13_6 - w_13_6 - y_14_6 = 0
x_13_7 - u_13_7 - v_13_7 - w_13_7 - y_14_7 = 0
t_13_0 - u_13_1 >= 0
t_13_0 - v_13_0 >= 0
t_13_0 - u_13_1 - v_13_0 <= 0
t_13_1 - u_13_2 >= 0
t_13_1 - v_13_1 >= 0
t_13_1 - u_13_2 - v_13_1 <= 0
t_13_2 - u_13_3 >= 0
t_13_2 - v_13_2 >= 0
t_13_2 - u_13_3 - v_13_2 <= 0
t_13_3 - u_13_4 >= 0
t_13_3 - v_13_3 >= 0
t_13_3 - u_13_4 - v_13_3 <= 0
t_13_4 - u_13_5 >= 0
t_13_4 - v_13_4 >= 0
t_13_4 - u_13_5 - v_13_4 <= 0
t_13_5 - u_13_6 >= 0
t_13_5 - v_13_5 >= 0
t_13_5 - u_13_6 - v_13_5 <= 0
t_13_6 - u_13_7 >= 0
t_13_6 - v_13_6 >= 0
t_13_6 - u_13_7 - v_13_6 <= 0
t_13_7 - u_13_0 >= 0
t_13_7 - v_13_7 >= 0
t_13_7 - u_13_0 - v_13_7 <= 0
x_14_0 - y_13_0 - t_13_0 - w_13_2 = 0
x_14_1 - y_13_1 - t_13_1 - w_13_3 = 0
x_14_2 - y_13_2 - t_13_2 - w_13_4 = 0
x_14_3 - y_13_3 - t_13_3 - w_13_5 = 0
x_14_4 - y_13_4 - t_13_4 - w_13_6 = 0
x_14_5 - y_13_5 - t_13_5 - w_13_7 = 0
x_14_6 - y_13_6 - t_13_6 - w_13_0 = 0
x_14_7 - y_13_7 - t_13_7 - w_13_1 = 0
x_14_0 - u_14_0 - v_14_0 - w_14_0 - y_15_0 = 0
x_14_1 - u_14_1 - v_14_1 - w_14_1 - y_15_1 = 0
x_14_2 - u_14_2 - v_14_2 - w_14_2 - y_15_2 = 0
x_14_3 - u_14_3 - v_14_3 - w_14_3 - y_15_3 = 0
x_14_4 - u_14_4 - v_14_4 - w_14_4 - y_15_4 = 0
x_14_5 - u_14_5 - v_14_5 - w_14_5 - y_15_5 = 0
x_14_6 - u_14_6 - v_14_6 - w_14_6 - y_15_6 = 0
x_14_7 - u_14_7 - v_14_7 - w_14_7 - y_15_7 = 0
t_14_0 - u_14_1 >= 0
t_14_0 - v_14_0 >= 0
t_14_0 - u_14_1 - v_14_0 <= 0
t_14_1 - u_14_2 >= 0
t_14_1 - v_14_1 >= 0
t_14_1 - u_14_2 - v_14_1 <= 0
t_14_2 - u_14_3 >= 0
t_14_2 - v_14_2 >= 0
t_14_2 - u_14_3 - v_14_2 <= 0
t_14_3 - u_14_4 >= 0
t_14_3 - v_14_3 >= 0
t_14_3 - u_14_4 - v_14_3 <= 0
t_14_4 - u_14_5 >= 0
t_14_4 - v_14_4 >= 0
t_14_4 - u_14_5 - v_14_4 <= 0
t_14_5 - u_14_6 >= 0
t_14_5 - v_14_5 >= 0
t_14_5 - u_14_6 - v_14_5 <= 0
t_14_6 - u_14_7 >= 0
t_14_6 - v_14_6 >= 0
t_14_6 - u_14_7 - v_14_6 <= 0
t_14_7 - u_14_0 >= 0
t_14_7 - v_14_7 >= 0
t_14_7 - u_14_0 - v_14_7 <= 0
x_15_0 - y_14_0 - t_14_0 - w_14_2 = 0
x_15_1 - y_14_1 - t_14_1 - w_14_3 = 0
x_15_2 - y_14_2 - t_14_2 - w_14_4 = 0
x_15_3 - y_14_3 - t_14_3 - w_14_5 = 0
x_15_4 - y_14_4 - t_14_4 - w_14_6 = 0
x_15_5 - y_14_5 - t_14_5 - w_14_7 = 0
x_15_6 - y_14_6 - t_14_6 - w_14_0 = 0
x_15_7 - y_14_7 - t_14_7 - w_14_1 = 0
x_15_0 - u_15_0 - v_15_0 - w_15_0 - y_16_0 = 0
x_15_1 - u_15_1 - v_15_1 - w_15_1 - y_16_1 = 0
x_15_2 - u_15_2 - v_15_2 - w_15_2 - y_16_2 = 0
x_15_3 - u_15_3 - v_15_3 - w_15_3 - y_16_3 = 0
x_15_4 - u_15_4 - v_15_4 - w_15_4 - y_16_4 = 0
x_15_5 - u_15_5 - v_15_5 - w_15_5 - y_16_5 = 0
x_15_6 - u_15_6 - v_15_6 - w_15_6 - y_16_6 = 0
x_15_7 - u_15_7 - v_15_7 - w_15_7 - y_16_7 = 0
t_15_0 - u_15_1 >= 0
t_15_0 - v_15_0 >= 0
t_15_0 - u_15_1 - v_15_0 <= 0
t_15_1 - u_15_2 >= 0
t_15_1 - v_15_1 >= 0
t_15_1 - u_15_2 - v_15_1 <= 0
t_15_2 - u_15_3 >= 0
t_15_2 - v_15_2 >= 0
t_15_2 - u_15_3 - v_15_2 <= 0
t_15_3 - u_15_4 >= 0
t_15_3 - v_15_3 >= 0
t_15_3 - u_15_4 - v_15_3 <= 0
t_15_4 - u_15_5 >= 0
t_15_4 - v_15_4 >= 0
t_15_4 - u_15_5 - v_15_4 <= 0
t_15_5 - u_15_6 >= 0
t_15_5 - v_15_5 >= 0
t_15_5 - u_15_6 - v_15_5 <= 0
t_15_6 - u_15_7 >= 0
t_15_6 - v_15_6 >= 0
t_15_6 - u_15_7 - v_15_6 <= 0
t_15_7 - u_15_0 >= 0
t_15_7 - v_15_7 >= 0
t_15_7 - u_15_0 - v_15_7 <= 0
x_16_0 - y_15_0 - t_15_0 - w_15_2 = 0
x_16_1 - y_15_1 - t_15_1 - w_15_3 = 0
x_16_2 - y_15_2 - t_15_2 - w_15_4 = 0
x_16_3 - y_15_3 - t_15_3 - w_15_5 = 0
x_16_4 - y_15_4 - t_15_4 - w_15_6 = 0
x_16_5 - y_15_5 - t_15_5 - w_15_7 = 0
x_16_6 - y_15_6 - t_15_6 - w_15_0 = 0
x_16_7 - y_15_7 - t_15_7 - w_15_1 = 0
x_0_0 = 0
x_0_1 = 1
x_0_2 = 1
x_0_3 = 1
x_0_4 = 1
x_0_5 = 1
x_0_6 = 1
x_0_7 = 1
y_0_0 = 1
y_0_1 = 1
y_0_2 = 1
y_0_3 = 1
y_0_4 = 1
y_0_5 = 1
y_0_6 = 1
y_0_7 = 1
x_16_0 = 0
x_16_1 = 0
x_16_2 = 0
x_16_3 = 0
x_16_4 = 0
x_16_5 = 0
x_16_6 = 0
x_16_7 = 0
y_16_0 = 0
y_16_1 = 0
y_16_2 = 0
y_16_3 = 0
y_16_4 = 0
y_16_5 = 0
y_16_6 = 0
y_16_7 = 0
Binary
x_0_0
x_0_1
x_0_2
x_0_3
x_0_4
x_0_5
x_0_6
x_0_7
y_0_0
y_0_1
y_0_2
y_0_3
y_0_4
y_0_5
y_0_6
y_0_7
u_0_0
u_0_1
u_0_2
u_0_3
u_0_4
u_0_5
u_0_6
u_0_7
v_0_0
v_0_1
v_0_2
v_0_3
v_0_4
v_0_5
v_0_6
v_0_7
w_0_0
w_0_1
w_0_2
w_0_3
w_0_4
w_0_5
w_0_6
w_0_7
t_0_0
t_0_1
t_0_2
t_0_3
t_0_4
t_0_5
t_0_6
t_0_7
x_1_0
x_1_1
x_1_2
x_1_3
x_1_4
x_1_5
x_1_6
x_1_7
y_1_0
y_1_1
y_1_2
y_1_3
y_1_4
y_1_5
y_1_6
y_1_7
u_1_0
u_1_1
u_1_2
u_1_3
u_1_4
u_1_5
u_1_6
u_1_7
v_1_0
v_1_1
v_1_2
v_1_3
v_1_4
v_1_5
v_1_6
v_1_7
w_1_0
w_1_1
w_1_2
w_1_3
w_1_4
w_1_5
w_1_6
w_1_7
t_1_0
t_1_1
t_1_2
t_1_3
t_1_4
t_1_5
t_1_6
t_1_7
x_2_0
x_2_1
x_2_2
x_2_3
x_2_4
x_2_5
x_2_6
x_2_7
y_2_0
y_2_1
y_2_2
y_2_3
y_2_4
y_2_5
y_2_6
y_2_7
u_2_0
u_2_1
u_2_2
u_2_3
u_2_4
u_2_5
u_2_6
u_2_7
v_2_0
v_2_1
v_2_2
v_2_3
v_2_4
v_2_5
v_2_6
v_2_7
w_2_0
w_2_1
w_2_2
w_2_3
w_2_4
w_2_5
w_2_6
w_2_7
t_2_0
t_2_1
t_2_2
t_2_3
t_2_4
t_2_5
t_2_6
t_2_7
x_3_0
x_3_1
x_3_2
x_3_3
x_3_4
x_3_5
x_3_6
x_3_7
y_3_0
y_3_1
y_3_2
y_3_3
y_3_4
y_3_5
y_3_6
y_3_7
u_3_0
u_3_1
u_3_2
u_3_3
u_3_4
u_3_5
u_3_6
u_3_7
v_3_0
v_3_1
v_3_2
v_3_3
v_3_4
v_3_5
v_3_6
v_3_7
w_3_0
w_3_1
w_3_2
w_3_3
w_3_4
w_3_5
w_3_6
w_3_7
t_3_0
t_3_1
t_3_2
t_3_3
t_3_4
t_3_5
t_3_6
t_3_7
x_4_0
x_4_1
x_4_2
x_4_3
x_4_4
x_4_5
x_4_6
x_4_7
y_4_0
y_4_1
y_4_2
y_4_3
y_4_4
y_4_5
y_4_6
y_4_7
u_4_0
u_4_1
u_4_2
u_4_3
u_4_4
u_4_5
u_4_6
u_4_7
v_4_0
v_4_1
v_4_2
v_4_3
v_4_4
v_4_5
v_4_6
v_4_7
w_4_0
w_4_1
w_4_2
w_4_3
w_4_4
w_4_5
w_4_6
w_4_7
t_4_0
t_4_1
t_4_2
t_4_3
t_4_4
t_4_5
t_4_6
t_4_7
x_5_0
x_5_1
x_5_2
x_5_3
x_5_4
x_5_5
x_5_6
x_5_7
y_5_0
y_5_1
y_5_2
y_5_3
y_5_4
y_5_5
y_5_6
y_5_7
u_5_0
u_5_1
u_5_2
u_5_3
u_5_4
u_5_5
u_5_6
u_5_7
v_5_0
v_5_1
v_5_2
v_5_3
v_5_4
v_5_5
v_5_6
v_5_7
w_5_0
w_5_1
w_5_2
w_5_3
w_5_4
w_5_5
w_5_6
w_5_7
t_5_0
t_5_1
t_5_2
t_5_3
t_5_4
t_5_5
t_5_6
t_5_7
x_6_0
x_6_1
x_6_2
x_6_3
x_6_4
x_6_5
x_6_6
x_6_7
y_6_0
y_6_1
y_6_2
y_6_3
y_6_4
y_6_5
y_6_6
y_6_7
u_6_0
u_6_1
u_6_2
u_6_3
u_6_4
u_6_5
u_6_6
u_6_7
v_6_0
v_6_1
v_6_2
v_6_3
v_6_4
v_6_5
v_6_6
v_6_7
w_6_0
w_6_1
w_6_2
w_6_3
w_6_4
w_6_5
w_6_6
w_6_7
t_6_0
t_6_1
t_6_2
t_6_3
t_6_4
t_6_5
t_6_6
t_6_7
x_7_0
x_7_1
x_7_2
x_7_3
x_7_4
x_7_5
x_7_6
x_7_7
y_7_0
y_7_1
y_7_2
y_7_3
y_7_4
y_7_5
y_7_6
y_7_7
u_7_0
u_7_1
u_7_2
u_7_3
u_7_4
u_7_5
u_7_6
u_7_7
v_7_0
v_7_1
v_7_2
v_7_3
v_7_4
v_7_5
v_7_6
v_7_7
w_7_0
w_7_1
w_7_2
w_7_3
w_7_4
w_7_5
w_7_6
w_7_7
t_7_0
t_7_1
t_7_2
t_7_3
t_7_4
t_7_5
t_7_6
t_7_7
x_8_0
x_8_1
x_8_2
x_8_3
x_8_4
x_8_5
x_8_6
x_8_7
y_8_0
y_8_1
y_8_2
y_8_3
y_8_4
y_8_5
y_8_6
y_8_7
u_8_0
u_8_1
u_8_2
u_8_3
u_8_4
u_8_5
u_8_6
u_8_7
v_8_0
v_8_1
v_8_2
v_8_3
v_8_4
v_8_5
v_8_6
v_8_7
w_8_0
w_8_1
w_8_2
w_8_3
w_8_4
w_8_5
w_8_6
w_8_7
t_8_0
t_8_1
t_8_2
t_8_3
t_8_4
t_8_5
t_8_6
t_8_7
x_9_0
x_9_1
x_9_2
x_9_3
x_9_4
x_9_5
x_9_6
x_9_7
y_9_0
y_9_1
y_9_2
y_9_3
y_9_4
y_9_5
y_9_6
y_9_7
u_9_0
u_9_1
u_9_2
u_9_3
u_9_4
u_9_5
u_9_6
u_9_7
v_9_0
v_9_1
v_9_2
v_9_3
v_9_4
v_9_5
v_9_6
v_9_7
w_9_0
w_9_1
w_9_2
w_9_3
w_9_4
w_9_5
w_9_6
w_9_7
t_9_0
t_9_1
t_9_2
t_9_3
t_9_4
t_9_5
t_9_6
t_9_7
x_10_0
x_10_1
x_10_2
x_10_3
x_10_4
x_10_5
x_10_6
x_10_7
y_10_0
y_10_1
y_10_2
y_10_3
y_10_4
y_10_5
y_10_6
y_10_7
u_10_0
u_10_1
u_10_2
u_10_3
u_10_4
u_10_5
u_10_6
u_10_7
v_10_0
v_10_1
v_10_2
v_10_3
v_10_4
v_10_5
v_10_6
v_10_7
w_10_0
w_10_1
w_10_2
w_10_3
w_10_4
w_10_5
w_10_6
w_10_7
t_10_0
t_10_1
t_10_2
t_10_3
t_10_4
t_10_5
t_10_6
t_10_7
x_11_0
x_11_1
x_11_2
x_11_3
x_11_4
x_11_5
x_11_6
x_11_7
y_11_0
y_11_1
y_11_2
y_11_3
y_11_4
y_11_5
y_11_6
y_11_7
u_11_0
u_11_1
u_11_2
u_11_3
u_11_4
u_11_5
u_11_6
u_11_7
v_11_0
v_11_1
v_11_2
v_11_3
v_11_4
v_11_5
v_11_6
v_11_7
w_11_0
w_11_1
w_11_2
w_11_3
w_11_4
w_11_5
w_11_6
w_11_7
t_11_0
t_11_1
t_11_2
t_11_3
t_11_4
t_11_5
t_11_6
t_11_7
x_12_0
x_12_1
x_12_2
x_12_3
x_12_4
x_12_5
x_12_6
x_12_7
y_12_0
y_12_1
y_12_2
y_12_3
y_12_4
y_12_5
y_12_6
y_12_7
u_12_0
u_12_1
u_12_2
u_12_3
u_12_4
u_12_5
u_12_6
u_12_7
v_12_0
v_12_1
v_12_2
v_12_3
v_12_4
v_12_5
v_12_6
v_12_7
w_12_0
w_12_1
w_12_2
w_12_3
w_12_4
w_12_5
w_12_6
w_12_7
t_12_0
t_12_1
t_12_2
t_12_3
t_12_4
t_12_5
t_12_6
t_12_7
x_13_0
x_13_1
x_13_2
x_13_3
x_13_4
x_13_5
x_13_6
x_13_7
y_13_0
y_13_1
y_13_2
y_13_3
y_13_4
y_13_5
y_13_6
y_13_7
u_13_0
u_13_1
u_13_2
u_13_3
u_13_4
u_13_5
u_13_6
u_13_7
v_13_0
v_13_1
v_13_2
v_13_3
v_13_4
v_13_5
v_13_6
v_13_7
w_13_0
w_13_1
w_13_2
w_13_3
w_13_4
w_13_5
w_13_6
w_13_7
t_13_0
t_13_1
t_13_2
t_13_3
t_13_4
t_13_5
t_13_6
t_13_7
x_14_0
x_14_1
x_14_2
x_14_3
x_14_4
x_14_5
x_14_6
x_14_7
y_14_0
y_14_1
y_14_2
y_14_3
y_14_4
y_14_5
y_14_6
y_14_7
u_14_0
u_14_1
u_14_2
u_14_3
u_14_4
u_14_5
u_14_6
u_14_7
v_14_0
v_14_1
v_14_2
v_14_3
v_14_4
v_14_5
v_14_6
v_14_7
w_14_0
w_14_1
w_14_2
w_14_3
w_14_4
w_14_5
w_14_6
w_14_7
t_14_0
t_14_1
t_14_2
t_14_3
t_14_4
t_14_5
t_14_6
t_14_7
x_15_0
x_15_1
x_15_2
x_15_3
x_15_4
x_15_5
x_15_6
x_15_7
y_15_0
y_15_1
y_15_2
y_15_3
y_15_4
y_15_5
y_15_6
y_15_7
u_15_0
u_15_1
u_15_2
u_15_3
u_15_4
u_15_5
u_15_6
u_15_7
v_15_0
v_15_1
v_15_2
v_15_3
v_15_4
v_15_5
v_15_6
v_15_7
w_15_0
w_15_1
w_15_2
w_15_3
w_15_4
w_15_5
w_15_6
w_15_7
t_15_0
t_15_1
t_15_2
t_15_3
t_15_4
t_15_5
t_15_6
t_15_7
x_16_0
x_16_1
x_16_2
x_16_3
x_16_4
x_16_5
x_16_6
x_16_7
y_16_0
y_16_1
y_16_2
y_16_3
y_16_4
y_16_5
y_16_6
y_16_7
END